1
1000
249
499 1
498 1
498 1
497 1
495 1
494 1
489 1
488 1
488 1
486 1
480 1
476 1
472 1
471 1
470 1
470 1
468 1
468 1
468 1
468 1
468 1
465 1
462 1
462 1
461 1
460 1
460 1
456 1
451 1
450 1
449 1
449 1
447 1
444 1
443 1
440 1
436 1
433 1
430 1
430 1
430 1
427 1
426 1
425 1
420 1
419 1
419 1
418 1
417 1
417 1
415 1
412 1
412 1
411 1
407 1
406 1
405 1
404 1
401 1
397 1
396 1
396 1
395 1
392 1
392 1
391 1
389 1
384 1
383 1
383 1
381 1
380 1
380 1
379 1
377 1
377 1
376 1
375 1
374 1
371 1
370 1
368 1
365 1
365 1
363 1
361 1
359 1
358 1
355 1
355 1
354 1
352 1
350 1
350 1
347 1
347 1
344 1
341 1
340 1
337 1
336 1
335 1
335 1
332 1
331 1
330 1
327 1
324 1
324 1
322 1
321 1
319 1
319 1
318 1
314 1
313 1
313 1
309 1
307 1
305 1
305 1
304 1
304 1
304 1
304 1
303 1
303 1
303 1
301 1
300 1
299 1
298 1
297 1
296 1
296 1
296 1
295 1
292 1
292 1
292 1
291 1
291 1
289 1
289 1
287 1
287 1
285 1
284 1
284 1
284 1
284 1
283 1
283 1
283 1
282 1
281 1
280 1
279 1
279 1
278 1
278 1
278 1
277 1
277 1
277 1
276 1
276 1
276 1
275 1
274 1
273 1
271 1
271 1
271 1
271 1
270 1
270 1
269 1
268 1
268 1
268 1
267 1
266 1
266 1
266 1
266 1
266 1
266 1
264 1
264 1
264 1
262 1
262 1
262 1
262 1
261 1
261 1
261 1
261 1
261 1
260 1
260 1
260 1
259 1
259 1
259 1
259 1
259 1
258 1
258 1
258 1
258 1
258 1
258 1
256 1
256 1
256 1
256 1
255 1
255 1
255 1
255 1
254 1
254 1
254 1
254 1
254 1
254 1
254 1
254 1
253 1
253 1
253 1
253 1
253 1
252 1
252 1
252 1
252 1
252 1
252 1
251 1
251 1
250 1
250 1
250 1
250 1
250 1
250 1
